; benchmark generated from python API
(set-info :status unknown)
(declare-fun syscall_stub_newfstatat_83_64 () (_ BitVec 64))
(declare-fun mem_c0000f45_79_992 () (_ BitVec 992))
(declare-fun mem_c0001010_98_32 () (_ BitVec 32))
(declare-fun mem_7fffffffffffffff_104_8 () (_ BitVec 8))
(declare-fun mem_8000000000000000_195_128 () (_ BitVec 128))
(declare-fun mem_8000000000000010_333_128 () (_ BitVec 128))
(declare-fun mem_8000000000000020_391_128 () (_ BitVec 128))
(assert
 (let ((?x47 ((_ extract 31 0) syscall_stub_newfstatat_83_64)))
 (let (($x52 (bvule ?x47 (_ bv4294963200 32))))
 (not $x52))))
(assert
 (let ((?x3699 ((_ extract 891 891) mem_c0000f45_79_992)))
 (= (_ bv0 1) ?x3699)))
(assert
 (let ((?x2189 ((_ extract 900 900) mem_c0000f45_79_992)))
 (= (_ bv0 1) ?x2189)))
(assert
 (let ((?x2374 ((_ extract 839 832) mem_c0000f45_79_992)))
 (= (_ bv255 8) ?x2374)))
(assert
 (let ((?x2364 ((_ extract 831 824) mem_c0000f45_79_992)))
 (= (_ bv255 8) ?x2364)))
(assert
 (let ((?x2349 ((_ extract 823 816) mem_c0000f45_79_992)))
 (= (_ bv255 8) ?x2349)))
(assert
 (let ((?x2357 ((_ extract 815 808) mem_c0000f45_79_992)))
 (= (_ bv255 8) ?x2357)))
(assert
 (let ((?x2362 ((_ extract 807 800) mem_c0000f45_79_992)))
 (= (_ bv255 8) ?x2362)))
(assert
 (let ((?x2363 ((_ extract 799 792) mem_c0000f45_79_992)))
 (= (_ bv255 8) ?x2363)))
(assert
 (let ((?x2346 ((_ extract 791 784) mem_c0000f45_79_992)))
 (= (_ bv255 8) ?x2346)))
(assert
 (let ((?x2345 ((_ extract 783 776) mem_c0000f45_79_992)))
 (= (_ bv127 8) ?x2345)))
(assert
 (let ((?x2427 ((_ extract 775 768) mem_c0000f45_79_992)))
 (let ((?x2419 ((_ extract 767 760) mem_c0000f45_79_992)))
 (let ((?x2429 ((_ extract 759 752) mem_c0000f45_79_992)))
 (let ((?x2417 ((_ extract 751 744) mem_c0000f45_79_992)))
 (let ((?x2410 ((_ extract 743 736) mem_c0000f45_79_992)))
 (let ((?x2411 ((_ extract 735 728) mem_c0000f45_79_992)))
 (let ((?x4124 (concat (concat ((_ extract 719 712) mem_c0000f45_79_992) ((_ extract 727 720) mem_c0000f45_79_992)) ?x2411)))
 (let ((?x3823 (concat (concat (concat (concat (concat ?x4124 ?x2410) ?x2417) ?x2429) ?x2419) ?x2427)))
 (let ((?x15099 (bvadd (_ bv9223372036854775808 64) ?x3823)))
 (let ((?x15111 ((_ extract 63 63) ?x15099)))
 (let (($x15093 (= (_ bv1 1) ?x15111)))
 (not $x15093)))))))))))))
(assert
 (let ((?x2401 ((_ extract 727 720) mem_c0000f45_79_992)))
 (let (($x17731 (= (_ bv255 8) ?x2401)))
 (let (($x17664 (not $x17731)))
 (let ((?x2411 ((_ extract 735 728) mem_c0000f45_79_992)))
 (let (($x17604 (= (_ bv255 8) ?x2411)))
 (let (($x17721 (not $x17604)))
 (let ((?x2417 ((_ extract 751 744) mem_c0000f45_79_992)))
 (let (($x17650 (= (_ bv255 8) ?x2417)))
 (let (($x17555 (not $x17650)))
 (let ((?x2410 ((_ extract 743 736) mem_c0000f45_79_992)))
 (let (($x17595 (= (_ bv255 8) ?x2410)))
 (let (($x17616 (not $x17595)))
 (let ((?x2419 ((_ extract 767 760) mem_c0000f45_79_992)))
 (let (($x17574 (= (_ bv255 8) ?x2419)))
 (let (($x17598 (not $x17574)))
 (let ((?x2429 ((_ extract 759 752) mem_c0000f45_79_992)))
 (let (($x17591 (= (_ bv255 8) ?x2429)))
 (let (($x17582 (not $x17591)))
 (let ((?x2400 ((_ extract 719 712) mem_c0000f45_79_992)))
 (let (($x58603 (= (_ bv127 8) ?x2400)))
 (let (($x56089 (not $x58603)))
 (let ((?x2427 ((_ extract 775 768) mem_c0000f45_79_992)))
 (let (($x52309 (= (_ bv255 8) ?x2427)))
 (let (($x57065 (not $x52309)))
 (let (($x57808 (or $x57065 $x56089 $x17582 $x17598 $x17616 $x17555 $x17721 $x17664)))
 (let (($x58601 (not $x57808)))
 (let ((?x3809 (concat (concat (concat (concat (concat ?x2400 ?x2401) ?x2411) ?x2410) ?x2417) ?x2429)))
 (let ((?x3823 (concat (concat ?x3809 ?x2419) ?x2427)))
 (let ((?x58194 (bvadd (_ bv9223372036854775809 64) ?x3823)))
 (let ((?x58113 ((_ extract 63 63) ?x58194)))
 (let (($x58125 (= (_ bv1 1) ?x58113)))
 (or $x58125 $x58601)))))))))))))))))))))))))))))))))
(assert
 (let ((?x6423 ((_ extract 835 832) mem_c0000f45_79_992)))
 (let ((?x196326 (bvadd (_ bv1 4) ?x6423)))
 (let ((?x196170 (concat (_ bv0 3) ?x196326)))
 (let ((?x14167 ((_ extract 838 832) mem_c0000f45_79_992)))
 (let ((?x14394 (bvmul (_ bv127 7) ?x14167)))
 (let ((?x13987 ((_ extract 774 768) mem_c0000f45_79_992)))
 (let ((?x302876 (bvadd (_ bv127 7) ?x13987)))
 (let ((?x301807 (bvadd ?x302876 ?x14394)))
 (let ((?x3615 ((_ extract 824 824) mem_c0000f45_79_992)))
 (let ((?x81651 (concat ?x3615 (_ bv255 8))))
 (let ((?x81652 (bvmul (_ bv511 9) ?x81651)))
 (let ((?x2427 ((_ extract 775 768) mem_c0000f45_79_992)))
 (let ((?x4203 ((_ extract 760 760) mem_c0000f45_79_992)))
 (let ((?x3607 (concat ?x4203 ?x2427)))
 (let ((?x49860 (bvadd (_ bv511 9) ?x3607)))
 (let ((?x306791 (bvadd ?x49860 ?x81652)))
 (let (($x305412 (bvule ?x306791 (_ bv398 9))))
 (let ((?x2419 ((_ extract 767 760) mem_c0000f45_79_992)))
 (let ((?x2429 ((_ extract 759 752) mem_c0000f45_79_992)))
 (let ((?x2417 ((_ extract 751 744) mem_c0000f45_79_992)))
 (let ((?x2410 ((_ extract 743 736) mem_c0000f45_79_992)))
 (let ((?x2411 ((_ extract 735 728) mem_c0000f45_79_992)))
 (let ((?x4124 (concat (concat ((_ extract 719 712) mem_c0000f45_79_992) ((_ extract 727 720) mem_c0000f45_79_992)) ?x2411)))
 (let ((?x3823 (concat (concat (concat (concat (concat ?x4124 ?x2410) ?x2417) ?x2429) ?x2419) ?x2427)))
 (let ((?x15099 (bvadd (_ bv9223372036854775808 64) ?x3823)))
 (let ((?x33956 ((_ extract 63 9) ?x15099)))
 (let (($x307286 (= (_ bv0 55) ?x33956)))
 (let (($x304823 (and $x307286 $x305412)))
 (let ((?x196112 (ite $x304823 ?x301807 (_ bv14 7))))
 (let ((?x192409 (bvadd (bvadd (_ bv112 7) ?x196112) ?x196170)))
 (let (($x196257 (bvule ?x192409 (_ bv64 7))))
 (let (($x200975 (not $x196257)))
 (let ((?x196792 (concat (_ bv0 60) ?x196326)))
 (let ((?x304796 (bvadd (bvadd (_ bv18446744073709551600 64) (ite $x304823 ?x15099 (_ bv398 64))) ?x196792)))
 (let ((?x305650 ((_ extract 63 7) ?x304796)))
 (let (($x304137 (= (_ bv0 57) ?x305650)))
 (let (($x303663 (not $x304137)))
 (or $x303663 $x200975)))))))))))))))))))))))))))))))))))))))
(assert
 (= (_ bv4294967295 32) mem_c0001010_98_32))
(assert
 (let (($x15106 (= (_ bv10 8) mem_7fffffffffffffff_104_8)))
 (not $x15106)))
(assert
 (let ((?x81676 ((_ extract 15 8) mem_8000000000000000_195_128)))
 (let (($x81692 (= (_ bv10 8) ?x81676)))
 (not $x81692))))
(assert
 (let ((?x81645 ((_ extract 7 0) mem_8000000000000000_195_128)))
 (let (($x80216 (= (_ bv10 8) ?x81645)))
 (not $x80216))))
(assert
 (let ((?x81707 ((_ extract 23 16) mem_8000000000000000_195_128)))
 (let (($x81702 (= (_ bv10 8) ?x81707)))
 (not $x81702))))
(assert
 (let ((?x81720 ((_ extract 31 24) mem_8000000000000000_195_128)))
 (let (($x81716 (= (_ bv10 8) ?x81720)))
 (not $x81716))))
(assert
 (let ((?x81734 ((_ extract 39 32) mem_8000000000000000_195_128)))
 (let (($x81729 (= (_ bv10 8) ?x81734)))
 (not $x81729))))
(assert
 (let ((?x80329 ((_ extract 47 40) mem_8000000000000000_195_128)))
 (let (($x81743 (= (_ bv10 8) ?x80329)))
 (not $x81743))))
(assert
 (let ((?x80240 ((_ extract 55 48) mem_8000000000000000_195_128)))
 (let (($x80352 (= (_ bv10 8) ?x80240)))
 (not $x80352))))
(assert
 (let ((?x80249 ((_ extract 63 56) mem_8000000000000000_195_128)))
 (let (($x80374 (= (_ bv10 8) ?x80249)))
 (not $x80374))))
(assert
 (let ((?x81079 ((_ extract 71 64) mem_8000000000000000_195_128)))
 (let (($x80355 (= (_ bv10 8) ?x81079)))
 (not $x80355))))
(assert
 (let ((?x80294 ((_ extract 79 72) mem_8000000000000000_195_128)))
 (let (($x80385 (= (_ bv10 8) ?x80294)))
 (not $x80385))))
(assert
 (let ((?x74206 ((_ extract 87 80) mem_8000000000000000_195_128)))
 (let (($x78076 (= (_ bv10 8) ?x74206)))
 (not $x78076))))
(assert
 (let ((?x84678 ((_ extract 95 88) mem_8000000000000000_195_128)))
 (let (($x73867 (= (_ bv10 8) ?x84678)))
 (not $x73867))))
(assert
 (let ((?x78032 ((_ extract 103 96) mem_8000000000000000_195_128)))
 (let (($x78096 (= (_ bv10 8) ?x78032)))
 (not $x78096))))
(assert
 (let ((?x78065 ((_ extract 111 104) mem_8000000000000000_195_128)))
 (let (($x78176 (= (_ bv10 8) ?x78065)))
 (not $x78176))))
(assert
 (let ((?x80326 ((_ extract 119 112) mem_8000000000000000_195_128)))
 (let (($x79637 (= (_ bv10 8) ?x80326)))
 (not $x79637))))
(assert
 (let ((?x80354 ((_ extract 127 120) mem_8000000000000000_195_128)))
 (let (($x78207 (= (_ bv10 8) ?x80354)))
 (not $x78207))))
(assert
 (let ((?x593021 ((_ extract 15 8) mem_8000000000000010_333_128)))
 (let (($x591247 (= (_ bv10 8) ?x593021)))
 (not $x591247))))
(assert
 (let ((?x593144 ((_ extract 7 0) mem_8000000000000010_333_128)))
 (let (($x594129 (= (_ bv10 8) ?x593144)))
 (not $x594129))))
(assert
 (let ((?x593464 ((_ extract 23 16) mem_8000000000000010_333_128)))
 (let (($x594574 (= (_ bv10 8) ?x593464)))
 (not $x594574))))
(assert
 (let ((?x593808 ((_ extract 31 24) mem_8000000000000010_333_128)))
 (let (($x594125 (= (_ bv10 8) ?x593808)))
 (not $x594125))))
(assert
 (let ((?x595056 ((_ extract 39 32) mem_8000000000000010_333_128)))
 (let (($x592903 (= (_ bv10 8) ?x595056)))
 (not $x592903))))
(assert
 (let ((?x594189 ((_ extract 47 40) mem_8000000000000010_333_128)))
 (let (($x594589 (= (_ bv10 8) ?x594189)))
 (not $x594589))))
(assert
 (let ((?x591999 ((_ extract 55 48) mem_8000000000000010_333_128)))
 (let (($x595070 (= (_ bv10 8) ?x591999)))
 (not $x595070))))
(assert
 (let ((?x594456 ((_ extract 63 56) mem_8000000000000010_333_128)))
 (let (($x595067 (= (_ bv10 8) ?x594456)))
 (not $x595067))))
(assert
 (let ((?x593958 ((_ extract 71 64) mem_8000000000000010_333_128)))
 (let (($x597075 (= (_ bv10 8) ?x593958)))
 (not $x597075))))
(assert
 (let ((?x594676 ((_ extract 79 72) mem_8000000000000010_333_128)))
 (let (($x599578 (= (_ bv10 8) ?x594676)))
 (not $x599578))))
(assert
 (let ((?x592704 ((_ extract 87 80) mem_8000000000000010_333_128)))
 (let (($x594477 (= (_ bv10 8) ?x592704)))
 (not $x594477))))
(assert
 (let ((?x593286 ((_ extract 95 88) mem_8000000000000010_333_128)))
 (let (($x594652 (= (_ bv10 8) ?x593286)))
 (not $x594652))))
(assert
 (let ((?x593939 ((_ extract 103 96) mem_8000000000000010_333_128)))
 (let (($x593215 (= (_ bv10 8) ?x593939)))
 (not $x593215))))
(assert
 (let ((?x285192 ((_ extract 111 104) mem_8000000000000010_333_128)))
 (let (($x597977 (= (_ bv10 8) ?x285192)))
 (not $x597977))))
(assert
 (let ((?x594183 ((_ extract 119 112) mem_8000000000000010_333_128)))
 (let (($x593490 (= (_ bv10 8) ?x594183)))
 (not $x593490))))
(assert
 (let ((?x599099 ((_ extract 127 120) mem_8000000000000010_333_128)))
 (let (($x594273 (= (_ bv10 8) ?x599099)))
 (not $x594273))))
(assert
 (let ((?x2374 ((_ extract 839 832) mem_c0000f45_79_992)))
 (let ((?x2364 ((_ extract 831 824) mem_c0000f45_79_992)))
 (let ((?x2349 ((_ extract 823 816) mem_c0000f45_79_992)))
 (let ((?x2357 ((_ extract 815 808) mem_c0000f45_79_992)))
 (let ((?x2362 ((_ extract 807 800) mem_c0000f45_79_992)))
 (let ((?x2363 ((_ extract 799 792) mem_c0000f45_79_992)))
 (let ((?x593 (concat (concat ((_ extract 783 776) mem_c0000f45_79_992) ((_ extract 791 784) mem_c0000f45_79_992)) ?x2363)))
 (let ((?x4215 (concat (concat (concat (concat ?x593 ?x2362) ?x2357) ?x2349) ?x2364)))
 (let ((?x3812 (concat ?x4215 ?x2374)))
 (let ((?x195494 (bvadd (_ bv17 64) ?x3812)))
 (let ((?x197007 ((_ extract 63 4) ?x195494)))
 (let ((?x195888 (concat ?x197007 (_ bv0 4))))
 (let ((?x1110548 (bvadd ?x195888 (_ bv16 64))))
 (= (_ bv9223372036854775840 64) ?x1110548)))))))))))))))
(assert
 (let ((?x1109823 ((_ extract 7 0) mem_8000000000000020_391_128)))
 (let (($x1109795 (= (_ bv10 8) ?x1109823)))
 (let ((?x297244 (ite $x1109795 (_ bv1 1) (_ bv0 1))))
 (let ((?x1111380 ((_ extract 15 8) mem_8000000000000020_391_128)))
 (let (($x1113896 (= (_ bv10 8) ?x1111380)))
 (let ((?x296446 (ite $x1113896 (_ bv1 1) (_ bv0 1))))
 (let ((?x385676 ((_ extract 23 16) mem_8000000000000020_391_128)))
 (let (($x384759 (= (_ bv10 8) ?x385676)))
 (let ((?x296735 (ite $x384759 (_ bv1 1) (_ bv0 1))))
 (let ((?x1110059 ((_ extract 31 24) mem_8000000000000020_391_128)))
 (let (($x772829 (= (_ bv10 8) ?x1110059)))
 (let ((?x298378 (ite $x772829 (_ bv1 1) (_ bv0 1))))
 (let ((?x298685 ((_ extract 39 32) mem_8000000000000020_391_128)))
 (let (($x298270 (= (_ bv10 8) ?x298685)))
 (let ((?x298132 (ite $x298270 (_ bv1 1) (_ bv0 1))))
 (let ((?x298559 ((_ extract 47 40) mem_8000000000000020_391_128)))
 (let (($x298687 (= (_ bv10 8) ?x298559)))
 (let ((?x299911 (ite $x298687 (_ bv1 1) (_ bv0 1))))
 (let ((?x299097 ((_ extract 55 48) mem_8000000000000020_391_128)))
 (let (($x299303 (= (_ bv10 8) ?x299097)))
 (let ((?x298133 (ite $x299303 (_ bv1 1) (_ bv0 1))))
 (let ((?x298148 ((_ extract 63 56) mem_8000000000000020_391_128)))
 (let (($x298153 (= (_ bv10 8) ?x298148)))
 (let ((?x297169 (ite $x298153 (_ bv1 1) (_ bv0 1))))
 (let ((?x298686 ((_ extract 71 64) mem_8000000000000020_391_128)))
 (let (($x298688 (= (_ bv10 8) ?x298686)))
 (let ((?x299502 (ite $x298688 (_ bv1 1) (_ bv0 1))))
 (let ((?x288079 ((_ extract 79 72) mem_8000000000000020_391_128)))
 (let (($x287815 (= (_ bv10 8) ?x288079)))
 (let ((?x771147 (ite $x287815 (_ bv1 1) (_ bv0 1))))
 (let ((?x775664 ((_ extract 87 80) mem_8000000000000020_391_128)))
 (let (($x276653 (= (_ bv10 8) ?x775664)))
 (let ((?x297983 (ite $x276653 (_ bv1 1) (_ bv0 1))))
 (let ((?x774255 ((_ extract 95 88) mem_8000000000000020_391_128)))
 (let (($x770403 (= (_ bv10 8) ?x774255)))
 (let ((?x299100 (ite $x770403 (_ bv1 1) (_ bv0 1))))
 (let ((?x778015 ((_ extract 103 96) mem_8000000000000020_391_128)))
 (let (($x780154 (= (_ bv10 8) ?x778015)))
 (let ((?x297569 (ite $x780154 (_ bv1 1) (_ bv0 1))))
 (let ((?x299708 ((_ extract 111 104) mem_8000000000000020_391_128)))
 (let (($x289265 (= (_ bv10 8) ?x299708)))
 (let ((?x297180 (ite $x289265 (_ bv1 1) (_ bv0 1))))
 (let ((?x777294 ((_ extract 119 112) mem_8000000000000020_391_128)))
 (let (($x779460 (= (_ bv10 8) ?x777294)))
 (let ((?x297552 (ite $x779460 (_ bv1 1) (_ bv0 1))))
 (let ((?x771907 ((_ extract 127 120) mem_8000000000000020_391_128)))
 (let (($x777890 (= (_ bv10 8) ?x771907)))
 (let ((?x298381 (ite $x777890 (_ bv1 1) (_ bv0 1))))
 (let ((?x296151 (concat (concat (concat (concat (concat ?x298381 ?x297552) ?x297180) ?x297569) ?x299100) ?x297983)))
 (let ((?x296831 (concat (concat (concat (concat (concat ?x296151 ?x771147) ?x299502) ?x297169) ?x298133) ?x299911)))
 (let ((?x296648 (concat (concat (concat (concat (concat ?x296831 ?x298132) ?x298378) ?x296735) ?x296446) ?x297244)))
 (and (distinct (_ bv0 16) ?x296648) true)))))))))))))))))))))))))))))))))))))))))))))))))))))
(maximize mem_8000000000000020_391_128)
(minimize mem_c0000f45_79_992)
(minimize mem_8000000000000010_333_128)
(maximize mem_8000000000000010_333_128)
(minimize mem_7fffffffffffffff_104_8)
(maximize mem_c0000f45_79_992)
(minimize mem_c0001010_98_32)
(maximize mem_c0001010_98_32)
(minimize syscall_stub_newfstatat_83_64)
(maximize syscall_stub_newfstatat_83_64)
(minimize mem_8000000000000000_195_128)
(maximize mem_7fffffffffffffff_104_8)
(minimize mem_8000000000000020_391_128)
(check-sat)
(get-objectives)
